* ENCODING=ISO-8859-1
NAME          CPLEX
ROWS
 N  obj1    
 G  c1      
 G  c2      
 G  c3      
 G  c4      
 G  c5      
 G  c6      
 G  c7      
 G  c8      
 G  c9      
 G  c10     
 G  c11     
 G  c12     
 G  c13     
 G  c14     
 G  c15     
 G  c16     
 G  c17     
 G  c18     
 G  c19     
 G  c20     
 G  c21     
 G  c22     
 G  c23     
 G  c24     
 G  c25     
 G  c26     
 G  c27     
 G  c28     
 G  c29     
 G  c30     
 G  c31     
 G  c32     
 G  c33     
 G  c34     
 G  c35     
COLUMNS
    MARK0000  'MARKER'                 'INTORG'
    x1        obj1                            1
    x1        c2                            817
    x1        c9                            515
    x1        c14                           663
    x1        c15                           404
    x1        c18                           816
    x1        c19                           126
    x1        c23                           738
    x2        obj1                            1
    x2        c4                            269
    x2        c27                           415
    x2        c28                           404
    x3        obj1                            1
    x3        c13                           784
    x3        c34                           632
    x4        obj1                            1
    x4        c10                           252
    x5        obj1                            1
    x6        obj1                            1
    x6        c12                           291
    x7        obj1                            1
    x7        c11                           771
    x7        c12                           442
    x7        c21                           948
    x7        c27                           619
    x7        c31                           531
    x8        obj1                            1
    x8        c8                            222
    x8        c10                           839
    x8        c12                           920
    x8        c20                           140
    x8        c22                           920
    x8        c30                           139
    x9        obj1                            1
    x9        c6                            942
    x9        c16                           440
    x9        c20                           104
    x10       obj1                            1
    x10       c13                           175
    x10       c29                           364
    x11       obj1                            1
    x11       c16                           989
    x11       c17                           212
    x11       c19                           359
    x11       c24                           568
    x12       obj1                            1
    x12       c14                           809
    x12       c31                           787
    x13       obj1                            1
    x13       c11                           284
    x13       c17                           868
    x13       c26                           883
    x14       obj1                            1
    x14       c1                            455
    x14       c11                           769
    x14       c14                           155
    x14       c22                           110
    x14       c27                           530
    x14       c31                           658
    x14       c34                           207
    x14       c35                           174
    x15       obj1                            1
    x15       c8                            146
    x15       c13                           851
    x15       c14                           939
    x15       c30                           103
    x15       c35                           421
    x16       obj1                            1
    x16       c14                           141
    x16       c35                           332
    x17       obj1                            1
    x17       c10                           412
    x17       c14                           829
    x17       c30                           474
    x17       c35                           380
    x18       obj1                            1
    x18       c7                            503
    x19       obj1                            1
    x19       c8                            186
    x19       c13                           422
    x19       c28                           264
    x19       c31                           834
    x19       c32                           747
    x20       obj1                            1
    x20       c35                           676
    x21       obj1                            1
    x21       c2                            667
    x21       c7                            949
    x21       c15                           311
    x21       c32                           374
    x22       obj1                            1
    x22       c5                            665
    x22       c9                            228
    x23       obj1                            1
    x23       c1                            207
    x23       c4                            576
    x23       c5                            620
    x23       c12                           574
    x23       c14                           710
    x23       c25                           635
    x23       c30                           690
    x23       c31                           775
    x24       obj1                            1
    x24       c1                            707
    x24       c9                            293
    x24       c11                           912
    x24       c17                           865
    x24       c26                           754
    x25       obj1                            1
    x25       c3                            641
    x25       c9                            196
    x25       c15                           723
    x25       c26                           169
    x25       c34                           977
    x26       obj1                            1
    x26       c5                            717
    x26       c27                           608
    x27       obj1                            1
    x27       c2                            180
    x27       c7                            451
    x27       c22                           794
    x28       obj1                            1
    x28       c12                           639
    x28       c27                           751
    x28       c34                           735
    x29       obj1                            1
    x29       c21                           701
    x29       c33                           696
    x30       obj1                            1
    x30       c3                            156
    x30       c8                            589
    x30       c10                           705
    x30       c16                           411
    x30       c21                           439
    x30       c34                           488
    x31       obj1                            1
    x31       c8                            365
    x31       c11                           335
    x31       c12                           309
    x31       c24                           172
    x31       c30                           719
    x32       obj1                            1
    x32       c4                            507
    x32       c22                           874
    x32       c25                           991
    x33       obj1                            1
    x33       c2                            324
    x33       c16                           953
    x33       c24                           399
    x33       c32                           633
    x34       obj1                            1
    x34       c7                            968
    x34       c15                           975
    x34       c23                           514
    x34       c30                           560
    x35       obj1                            1
    x35       c21                           118
    x35       c26                           395
    x35       c29                           676
    x36       obj1                            1
    x36       c5                            266
    x36       c21                           727
    x36       c23                           612
    x37       obj1                            1
    x37       c4                            488
    x37       c6                            350
    x37       c12                           310
    x37       c27                           764
    x38       obj1                            1
    x38       c6                            366
    x38       c15                           880
    x39       obj1                            1
    x39       c3                            831
    x39       c11                           285
    x39       c35                           311
    x40       obj1                            1
    x40       c11                           293
    x40       c13                           910
    x40       c23                           955
    x40       c26                           706
    x40       c28                           542
    x40       c31                           584
    x41       obj1                            1
    x41       c6                            637
    x41       c8                            994
    x42       obj1                            1
    x42       c2                            734
    x42       c34                           760
    x43       obj1                            1
    x43       c7                            773
    x43       c26                           768
    x44       obj1                            1
    x44       c6                            298
    x44       c18                           549
    x44       c22                           685
    x44       c23                           158
    x44       c32                           405
    x44       c33                           217
    x45       obj1                            1
    x45       c2                            466
    x45       c4                            375
    x45       c22                           541
    x46       obj1                            1
    x46       c29                           901
    x46       c32                           981
    x46       c34                           605
    x47       obj1                            1
    x47       c4                            336
    x47       c22                           755
    x47       c24                           416
    x48       obj1                            1
    x48       c11                           582
    x48       c26                           845
    x48       c33                           788
    x49       obj1                            1
    x49       c2                            263
    x49       c4                            200
    x49       c9                            511
    x49       c25                           220
    x49       c26                           761
    x49       c32                           520
    x49       c34                           120
    x50       obj1                            1
    x50       c7                            247
    x50       c8                            478
    x50       c16                           507
    x50       c18                           191
    x50       c20                           608
    x51       obj1                            1
    x51       c12                           623
    x51       c14                           715
    x52       obj1                            1
    x52       c5                            366
    x52       c9                            781
    x52       c32                           985
    x52       c35                           928
    x53       obj1                            1
    x53       c1                            969
    x53       c35                           367
    x54       obj1                            1
    x54       c15                           650
    x54       c17                           306
    x54       c19                           747
    x54       c32                           725
    x55       obj1                            1
    x55       c10                           781
    x55       c16                           164
    x56       obj1                            1
    x56       c4                            101
    x56       c14                           167
    x56       c20                           383
    x56       c29                           199
    x57       obj1                            1
    x57       c6                            302
    x57       c10                           343
    x57       c27                           809
    x57       c31                           521
    x58       obj1                            1
    x58       c2                            712
    x58       c4                            474
    x58       c15                           150
    x58       c19                           658
    x58       c24                           287
    x58       c27                           313
    x59       obj1                            1
    x59       c8                            527
    x59       c16                           951
    x59       c28                           700
    x59       c33                           798
    x60       obj1                            1
    x60       c27                           368
    x60       c29                           616
    x60       c30                           563
    x60       c33                           955
    x61       obj1                            1
    x61       c19                           303
    x61       c23                           655
    x61       c28                           987
    x61       c34                           827
    x62       obj1                            1
    x62       c8                            270
    x62       c15                           588
    x62       c31                           432
    x62       c34                           809
    x63       obj1                            1
    x64       obj1                            1
    x64       c18                           703
    x64       c21                           737
    x64       c35                           401
    x65       obj1                            1
    x65       c1                            896
    x65       c11                           639
    x65       c32                           185
    x66       obj1                            1
    x66       c1                            339
    x66       c22                           332
    x66       c29                           463
    x67       obj1                            1
    x67       c1                            852
    x67       c17                           448
    x67       c19                           543
    x67       c25                           592
    x68       obj1                            1
    x68       c1                            695
    x68       c4                            164
    x68       c22                           848
    x68       c35                           193
    x69       obj1                            1
    x69       c10                           727
    x69       c12                           484
    x69       c19                           850
    x69       c21                           926
    x70       obj1                            1
    x70       c3                            587
    x70       c6                            638
    x70       c8                            185
    x70       c23                           621
    x70       c29                           590
    x70       c31                           731
    MARK0001  'MARKER'                 'INTEND'
RHS
    rhs       c1                           2560
    rhs       c2                           2082
    rhs       c3                           1108
    rhs       c4                           1745
    rhs       c5                           1317
    rhs       c6                           1767
    rhs       c7                           1946
    rhs       c8                           1981
    rhs       c9                           1262
    rhs       c10                          2030
    rhs       c11                          2435
    rhs       c12                          2296
    rhs       c13                          1571
    rhs       c14                          2564
    rhs       c15                          2341
    rhs       c16                          2208
    rhs       c17                          1350
    rhs       c18                          1130
    rhs       c19                          1793
    rhs       c20                           618
    rhs       c21                          2298
    rhs       c22                          2930
    rhs       c23                          2127
    rhs       c24                           921
    rhs       c25                          1219
    rhs       c26                          2641
    rhs       c27                          2589
    rhs       c28                          1449
    rhs       c29                          1905
    rhs       c30                          1624
    rhs       c31                          2927
    rhs       c32                          2778
    rhs       c33                          1727
    rhs       c34                          3080
    rhs       c35                          2092
BOUNDS
 LI bnd       x1        0
 LI bnd       x2        0
 LI bnd       x3        0
 LI bnd       x4        0
 LI bnd       x5        0
 LI bnd       x6        0
 LI bnd       x7        0
 LI bnd       x8        0
 LI bnd       x9        0
 LI bnd       x10       0
 LI bnd       x11       0
 LI bnd       x12       0
 LI bnd       x13       0
 LI bnd       x14       0
 LI bnd       x15       0
 LI bnd       x16       0
 LI bnd       x17       0
 LI bnd       x18       0
 LI bnd       x19       0
 LI bnd       x20       0
 LI bnd       x21       0
 LI bnd       x22       0
 LI bnd       x23       0
 LI bnd       x24       0
 LI bnd       x25       0
 LI bnd       x26       0
 LI bnd       x27       0
 LI bnd       x28       0
 LI bnd       x29       0
 LI bnd       x30       0
 LI bnd       x31       0
 LI bnd       x32       0
 LI bnd       x33       0
 LI bnd       x34       0
 LI bnd       x35       0
 LI bnd       x36       0
 LI bnd       x37       0
 LI bnd       x38       0
 LI bnd       x39       0
 LI bnd       x40       0
 LI bnd       x41       0
 LI bnd       x42       0
 LI bnd       x43       0
 LI bnd       x44       0
 LI bnd       x45       0
 LI bnd       x46       0
 LI bnd       x47       0
 LI bnd       x48       0
 LI bnd       x49       0
 LI bnd       x50       0
 LI bnd       x51       0
 LI bnd       x52       0
 LI bnd       x53       0
 LI bnd       x54       0
 LI bnd       x55       0
 LI bnd       x56       0
 LI bnd       x57       0
 LI bnd       x58       0
 LI bnd       x59       0
 LI bnd       x60       0
 LI bnd       x61       0
 LI bnd       x62       0
 LI bnd       x63       0
 LI bnd       x64       0
 LI bnd       x65       0
 LI bnd       x66       0
 LI bnd       x67       0
 LI bnd       x68       0
 LI bnd       x69       0
 LI bnd       x70       0
ENDATA
